17	4
18	25	18	12	
0	0	0	0	0	3	2	3	4	
10	0	0	0	7	2	17	17	
6	0	4	0	0	3	5	17	17	
2	6	0	0	0	3	6	8	17	
9	0	0	10	0	2	10	17	
175	0	10	0	0	3	7	9	17	
175	0	9	0	0	2	10	17	
225	0	0	3	0	1	11	
100	0	0	0	3	3	13	14	17	
50	0	0	5	0	3	13	17	17	
75	0	0	5	0	3	12	17	17	
250	0	9	0	0	3	13	16	17	
7	0	0	0	2	1	17	
4	0	0	3	0	2	15	17	
6	0	4	0	0	2	17	17	
6	9	0	0	0	2	17	17	
0	0	0	0	0	0	
